p edge 20 41 10
v 1 5
v 3 4 6 11
v 4 8 12 13 14
v 1 16
v 4 1 9 15 19
v 1 17
v 1 18
v 1 2
v 1 7
v 3 3 10 20
e 1 8
e 1 9
e 1 17
e 1 18
e 2 5
e 2 10
e 2 11
e 2 16
e 2 20
e 3 8
e 3 11
e 3 16
e 3 19
e 4 5
e 4 11
e 4 13
e 4 17
e 5 18
e 6 7
e 6 10
e 6 11
e 6 13
e 6 14
e 6 16
e 7 15
e 8 11
e 8 13
e 8 16
e 8 19
e 8 20
e 9 13
e 9 15
e 10 17
e 11 20
e 12 16
e 12 17
e 13 14
e 15 19
e 16 20
e 17 18
e 17 20
